% Generado automaticamente desde C:/Users/andres/Desktop/SEPTIMO SEMESTRE/ADAII/proyecto_final/Proyecto-Optimizacion-ADA2/BateriaPruebas_2025_2_P2/Prueba24.txt

n = 125;
m = 3;
ct = 60.0;
maxMovs = 80.0;
v = [0.409, 0.691, 0.834];
p = [58, 36, 31];
s = [| 19, 16, 23 | 13, 9, 14 | 12, 10, 9 |];
